Na6 Li2 Mn6 O16                         
   1.00000000000000     
    -2.8361764813587804   -4.9277497866910061   -0.0556163741032913
    -2.8709466667036301    4.9479563667282962   -0.0621445702239765
    -0.2237612887277624    0.0066614821270894  -11.3223317539768438
   Na   Li   Mn   O 
     3     2     6    16
Direct
  0.4958085669692279  0.5105196550563365  0.2475945181597055
  0.1429441737019090  0.2873112570399171  0.7510149898450668
  0.8140684249916501  0.1507838580377417  0.2498086795711541
  0.5021499896237976  0.9826197170213165  0.5448667521618943
  0.0051728905605905  0.0355160251438775  0.0057582988716072
  0.9986738899035422  0.9904486150353260  0.4984063454354090
 -0.0004440810405546  0.4844594546579985  0.4997724141251467
  0.4989943640802749  0.4873599165679064  0.5004689649924263
  0.0046982354439028  0.5056514037719277  0.0007122072183750
  0.5042733229356794  0.0163129543597467  0.9936500048824791
  0.4986392448204201  0.5114823548661904  0.9994932407310840
  0.3145594728582046  0.1579472933806572  0.5814708919922792
  0.3115242263285479  0.6191911370543828  0.5845712456919934
  0.8569291552462697  0.1630257576946368  0.5841847715123426
  0.8270574603424854  0.6486739728894780  0.5840296067022127
  0.1701107558220174  0.3272840820001464  0.4066926251008144
  0.1417021735427260  0.8117388135502905  0.4034487983528557
  0.6926786045641360  0.3645486387103922  0.4037605658931593
  0.6861428346864985  0.8160102336109295  0.4062870355371970
  0.1752356904123115  0.3651691598885746  0.0916537509315046
  0.1682275502406820  0.8314418968117278  0.0799667776602986
  0.6606181377587259  0.3345839125302635  0.0896496181122724
  0.6397924241960748  0.8309439842327204  0.0870500531928430
  0.3638066489767219  0.2041447925794110  0.9129401150287221
  0.3402960777617133  0.6784318493661646  0.9109019128230715
  0.8381039680553212  0.2022753792038972  0.9139736243586243
  0.8382357972171329  0.6721238849380444  0.9178721911154684
 
  0.00000000E+00  0.00000000E+00  0.00000000E+00
  0.00000000E+00  0.00000000E+00  0.00000000E+00
  0.00000000E+00  0.00000000E+00  0.00000000E+00
  0.00000000E+00  0.00000000E+00  0.00000000E+00
  0.00000000E+00  0.00000000E+00  0.00000000E+00
  0.00000000E+00  0.00000000E+00  0.00000000E+00
  0.00000000E+00  0.00000000E+00  0.00000000E+00
  0.00000000E+00  0.00000000E+00  0.00000000E+00
  0.00000000E+00  0.00000000E+00  0.00000000E+00
  0.00000000E+00  0.00000000E+00  0.00000000E+00
  0.00000000E+00  0.00000000E+00  0.00000000E+00
  0.00000000E+00  0.00000000E+00  0.00000000E+00
  0.00000000E+00  0.00000000E+00  0.00000000E+00
  0.00000000E+00  0.00000000E+00  0.00000000E+00
  0.00000000E+00  0.00000000E+00  0.00000000E+00
  0.00000000E+00  0.00000000E+00  0.00000000E+00
  0.00000000E+00  0.00000000E+00  0.00000000E+00
  0.00000000E+00  0.00000000E+00  0.00000000E+00
  0.00000000E+00  0.00000000E+00  0.00000000E+00
  0.00000000E+00  0.00000000E+00  0.00000000E+00
  0.00000000E+00  0.00000000E+00  0.00000000E+00
  0.00000000E+00  0.00000000E+00  0.00000000E+00
  0.00000000E+00  0.00000000E+00  0.00000000E+00
  0.00000000E+00  0.00000000E+00  0.00000000E+00
  0.00000000E+00  0.00000000E+00  0.00000000E+00
  0.00000000E+00  0.00000000E+00  0.00000000E+00
  0.00000000E+00  0.00000000E+00  0.00000000E+00
