Na6 Li2 Mn6 O16                         
   1.00000000000000     
    -2.9083326247195802   -5.0483537560676135   -0.0524411984918699
    -2.9335365919903253    5.0630945354893484   -0.0631779753242313
    -0.2241994367128455    0.0116087004937890  -11.3327407712931656
   Na   Li   Mn   O 
     3     2     6    16
Direct
  0.4944138020808034  0.5095222054761989  0.2476698891602444
  0.1414646164974553  0.2874878758283163  0.7504299222371252
  0.8144812440084674  0.1513895535798631  0.2498065955548840
  0.5003103996622302  0.9817794882804961  0.5429501669979380
  0.0016447872870869  0.0224086560055812  0.0062615921679904
  0.9988479111235270  0.9881816634903465  0.4965907737192589
  0.0006306375408768  0.4875022118390657  0.4985668646364679
  0.4992828094521690  0.4885310076594722  0.4993605052842925
  0.0042959040421018  0.5098357533685038  0.0009201980896526
  0.5019364164623000  0.0136544566348076  0.9949473026982673
  0.5032016958804710  0.5149366841696529  0.9991895797997122
  0.3161447017409616  0.1583515083371049  0.5829438981950533
  0.3128620604056119  0.6199257957537381  0.5868852737898873
  0.8550873603360728  0.1618837254358177  0.5852941714529800
  0.8260377773240050  0.6486495341309466  0.5859104382203647
  0.1723502861928030  0.3288606290005873  0.4041201907775926
  0.1468171944888617  0.8140641206005078  0.4072843186147109
  0.6910008689318480  0.3629407702358085  0.4022896705601191
  0.6834279691564249  0.8168258024092958  0.4048377061396938
  0.1756756618786903  0.3633676388996540  0.0932578187141996
  0.1700352981395701  0.8347031128990812  0.0806640652873938
  0.6603636850278359  0.3355065715464948  0.0919976151741264
  0.6398787206551977  0.8329858720254091  0.0893445823727666
  0.3641164813464265  0.2046508012448097  0.9104418589941445
  0.3409604128722706  0.6802627506833462  0.9090357884101287
  0.8374824108336881  0.2006583247807193  0.9119293281331482
  0.8372488866322448  0.6711334856843627  0.9170698848178498
 
  0.00000000E+00  0.00000000E+00  0.00000000E+00
  0.00000000E+00  0.00000000E+00  0.00000000E+00
  0.00000000E+00  0.00000000E+00  0.00000000E+00
  0.00000000E+00  0.00000000E+00  0.00000000E+00
  0.00000000E+00  0.00000000E+00  0.00000000E+00
  0.00000000E+00  0.00000000E+00  0.00000000E+00
  0.00000000E+00  0.00000000E+00  0.00000000E+00
  0.00000000E+00  0.00000000E+00  0.00000000E+00
  0.00000000E+00  0.00000000E+00  0.00000000E+00
  0.00000000E+00  0.00000000E+00  0.00000000E+00
  0.00000000E+00  0.00000000E+00  0.00000000E+00
  0.00000000E+00  0.00000000E+00  0.00000000E+00
  0.00000000E+00  0.00000000E+00  0.00000000E+00
  0.00000000E+00  0.00000000E+00  0.00000000E+00
  0.00000000E+00  0.00000000E+00  0.00000000E+00
  0.00000000E+00  0.00000000E+00  0.00000000E+00
  0.00000000E+00  0.00000000E+00  0.00000000E+00
  0.00000000E+00  0.00000000E+00  0.00000000E+00
  0.00000000E+00  0.00000000E+00  0.00000000E+00
  0.00000000E+00  0.00000000E+00  0.00000000E+00
  0.00000000E+00  0.00000000E+00  0.00000000E+00
  0.00000000E+00  0.00000000E+00  0.00000000E+00
  0.00000000E+00  0.00000000E+00  0.00000000E+00
  0.00000000E+00  0.00000000E+00  0.00000000E+00
  0.00000000E+00  0.00000000E+00  0.00000000E+00
  0.00000000E+00  0.00000000E+00  0.00000000E+00
  0.00000000E+00  0.00000000E+00  0.00000000E+00
