Na6 Li2 Mn6 O16                         
   1.00000000000000     
    -2.8581404515667765   -4.9086705114844129   -0.0472228775578810
    -2.8869424723660351    4.9257024680293435    0.0019101298182048
    -0.0844931314767672   -0.0515403298342084  -11.2664514491575414
   Na   Li   Mn   O 
     3     2     6    16
Direct
  0.3290178160612172  0.6880465675907956  0.2483204078766619
  0.1604647601443929  0.3022105641764483  0.7520823150249427
  0.8416317359800871  0.1484280386830008  0.2447201420381120
  0.5007299532884701  0.9801008292328177  0.5504444950117460
  0.0071891046606964  0.0255010851463879  0.0160959404385892
  0.9962116717055522  0.9916476772845186  0.4944106727815551
  0.9995382733679108  0.4891721855497480  0.5014066679620370
  0.4964625012258352  0.4928402025818883  0.4940165909355088
  0.0023051047262328  0.5058958712174118  0.0023415540785194
  0.4998067699668880  0.0086824970343002  0.9967113187435714
  0.4964317827186875  0.5070950349431627  0.0080774867461102
  0.3200650641913256  0.1663321562810083  0.5745596342426396
  0.3127888077909518  0.6212224576500560  0.5850849974114638
  0.8593524362179821  0.1701842783015977  0.5837823585698061
  0.8247993580970316  0.6580710081873562  0.5814558689958105
  0.1647934070807793  0.3292775528911918  0.4033267735779233
  0.1288751707892573  0.7995346896626501  0.4018174108199446
  0.6949468393924505  0.3649164009661305  0.3989650655112200
  0.6737504304512640  0.8173107627430269  0.4036024034634309
  0.1735587116228459  0.3677679468643547  0.0953167846014225
  0.1714520361196037  0.8342748272145784  0.0820351780001261
  0.6647545674540893  0.3338730012447186  0.0909521340563373
  0.6442028653715184  0.8363217713417512  0.0893609476248614
  0.3672547932401500  0.2027141262282299  0.9126585441402995
  0.3361623350351906  0.6676374468021251  0.9137207233872715
  0.8339305406521547  0.1936332524768574  0.9119980788969357
  0.8195231626474282  0.6473077677039001  0.9127355050631465
 
  0.00000000E+00  0.00000000E+00  0.00000000E+00
  0.00000000E+00  0.00000000E+00  0.00000000E+00
  0.00000000E+00  0.00000000E+00  0.00000000E+00
  0.00000000E+00  0.00000000E+00  0.00000000E+00
  0.00000000E+00  0.00000000E+00  0.00000000E+00
  0.00000000E+00  0.00000000E+00  0.00000000E+00
  0.00000000E+00  0.00000000E+00  0.00000000E+00
  0.00000000E+00  0.00000000E+00  0.00000000E+00
  0.00000000E+00  0.00000000E+00  0.00000000E+00
  0.00000000E+00  0.00000000E+00  0.00000000E+00
  0.00000000E+00  0.00000000E+00  0.00000000E+00
  0.00000000E+00  0.00000000E+00  0.00000000E+00
  0.00000000E+00  0.00000000E+00  0.00000000E+00
  0.00000000E+00  0.00000000E+00  0.00000000E+00
  0.00000000E+00  0.00000000E+00  0.00000000E+00
  0.00000000E+00  0.00000000E+00  0.00000000E+00
  0.00000000E+00  0.00000000E+00  0.00000000E+00
  0.00000000E+00  0.00000000E+00  0.00000000E+00
  0.00000000E+00  0.00000000E+00  0.00000000E+00
  0.00000000E+00  0.00000000E+00  0.00000000E+00
  0.00000000E+00  0.00000000E+00  0.00000000E+00
  0.00000000E+00  0.00000000E+00  0.00000000E+00
  0.00000000E+00  0.00000000E+00  0.00000000E+00
  0.00000000E+00  0.00000000E+00  0.00000000E+00
  0.00000000E+00  0.00000000E+00  0.00000000E+00
  0.00000000E+00  0.00000000E+00  0.00000000E+00
  0.00000000E+00  0.00000000E+00  0.00000000E+00
