Na6 Mn8 O16                             
   1.00000000000000     
    -2.8438552044735386   -5.1672213803652696    0.0001236510552729
    -2.8494184412807346    5.1745573999520413   -0.0002797854169884
    -0.0002522947046005    0.0003824006509562  -11.2722285067735388
   Na   Mn   O 
     3     8    16
Direct
  0.5213909198650662  0.4886130833768333  0.2499771807857731
  0.1625503894331087  0.3284344471758119  0.7500213076824793
  0.8374654058613918  0.1425298003443919  0.2499781230218651
  0.9989441260389379  0.9995178889790661  0.4975215299698363
  0.9991989336447233  0.5031447242168952  0.4989318693837170
  0.4966711445228774  0.0012863749847865  0.5058112152210242
  0.4985919868511774  0.5023802332216992  0.5003681049277368
  0.9989665651510544  0.9995385560140511  0.0024874039657257
  0.9991972177567557  0.5031393396464358  0.0010684496630374
  0.4966810986599685  0.0013009134139499  0.9941883600036052
  0.4985815390083516  0.5023860429512075 -0.0003615772810825
  0.3123774047549379  0.1890033230461016  0.5895832224332322
  0.3341766983309827  0.6568455545458931  0.5826893975592389
  0.8410967566806472  0.1676774085541167  0.5798328785172996
  0.8207837352910977  0.6775600667316366  0.5850874554700719
  0.1753698138290637  0.3254205868981150  0.4051513263961541
  0.1657632847503004  0.8389778613337314  0.4205963003526272
  0.6602367568781070  0.3355517494950013  0.4148482485589302
  0.6810430988546278  0.8178188781005287  0.4043911458335677
  0.1753811196334812  0.3253981323083102  0.0948860637698673
  0.1658025995755060  0.8390254995600190  0.0794472309729741
  0.6602221079971559  0.3355215174072222  0.0851892711989264
  0.6810320079371057  0.8178078326560152  0.0956444527103747
  0.3123965699743657  0.1890052731962459  0.9103884069182997
  0.3342077265751905  0.6568773684677195  0.9172713080387829
  0.8410809455671716  0.1676481411075305  0.9201269904715188
  0.8207900465768552  0.6775894022666654  0.9148743334544310
 
  0.00000000E+00  0.00000000E+00  0.00000000E+00
  0.00000000E+00  0.00000000E+00  0.00000000E+00
  0.00000000E+00  0.00000000E+00  0.00000000E+00
  0.00000000E+00  0.00000000E+00  0.00000000E+00
  0.00000000E+00  0.00000000E+00  0.00000000E+00
  0.00000000E+00  0.00000000E+00  0.00000000E+00
  0.00000000E+00  0.00000000E+00  0.00000000E+00
  0.00000000E+00  0.00000000E+00  0.00000000E+00
  0.00000000E+00  0.00000000E+00  0.00000000E+00
  0.00000000E+00  0.00000000E+00  0.00000000E+00
  0.00000000E+00  0.00000000E+00  0.00000000E+00
  0.00000000E+00  0.00000000E+00  0.00000000E+00
  0.00000000E+00  0.00000000E+00  0.00000000E+00
  0.00000000E+00  0.00000000E+00  0.00000000E+00
  0.00000000E+00  0.00000000E+00  0.00000000E+00
  0.00000000E+00  0.00000000E+00  0.00000000E+00
  0.00000000E+00  0.00000000E+00  0.00000000E+00
  0.00000000E+00  0.00000000E+00  0.00000000E+00
  0.00000000E+00  0.00000000E+00  0.00000000E+00
  0.00000000E+00  0.00000000E+00  0.00000000E+00
  0.00000000E+00  0.00000000E+00  0.00000000E+00
  0.00000000E+00  0.00000000E+00  0.00000000E+00
  0.00000000E+00  0.00000000E+00  0.00000000E+00
  0.00000000E+00  0.00000000E+00  0.00000000E+00
  0.00000000E+00  0.00000000E+00  0.00000000E+00
  0.00000000E+00  0.00000000E+00  0.00000000E+00
  0.00000000E+00  0.00000000E+00  0.00000000E+00
