ALGO = All
EDIFF = 0.00135
ENCUT = 520
HFSCREEN = 0.2
IBRION = 2
ICHARG = 1
ISIF = 3
ISMEAR = 0
ISPIN = 2
LHFCALC = True
LMAXMIX = 4
LORBIT = 11
LREAL = Auto
LWAVE = False
MAGMOM = 3*0.6 8*3.0 16*0.6
NELM = 100
NSW = 99
PREC = Accurate
PRECFOCK = Fast
SIGMA = 0.05
SYMPREC = 1e-09
