pymatgen with grid density = 1046 / number of atoms
0
Gamma
4 4 2
