Na6 Mn8 O16                             
   1.00000000000000     
    -2.9042811216647588   -5.2557943355019292    0.0000800041869747
    -2.9097909648426774    5.2631616596820834   -0.0001874004894895
    -0.0001577254475779    0.0002355865315300  -11.4040716062860419
   Na   Mn   O 
     3     8    16
Direct
  0.5213907521465160  0.4886304042055800  0.2499969566548172
  0.1625755943011366  0.3284310785773605  0.7500018323176277
  0.8374684043025042  0.1425079874438749  0.2499964671866447
  0.9988167835575648  0.9999259213147185  0.4973240931822328
  0.9990782746432705  0.5028202486180571  0.4988599276495976
  0.4968219074792619  0.0014307477949561  0.5058817647216803
  0.4984799496149772  0.5023325056173340  0.4999129352989995
  0.9988342121089252  0.9999331007837567  0.0026790466691988
  0.9990708255438396  0.5028122543373529  0.0011378071733541
  0.4968314742752466  0.0014498626290449  0.9941231301672774
  0.4984814907505655  0.5023549031869506  0.0000860281178128
  0.3130553654070746  0.1880061245852961  0.5913284800940674
  0.3342383519509939  0.6570253772894852  0.5844924256778884
  0.8411244497875708  0.1674940381558410  0.5815350423474965
  0.8213520079773390  0.6772779642688502  0.5868788306440030
  0.1751887220582916  0.3257709732822802  0.4036493670421702
  0.1661247270929201  0.8392803043929115  0.4188702545266788
  0.6598444876078422  0.3352921217136619  0.4132427264031587
  0.6801146290772567  0.8185338334010998  0.4029276668433796
  0.1751988486123950  0.3257500268828931  0.0963577844623534
  0.1661264152535348  0.8392746011721844  0.0811247722251819
  0.6598523802076450  0.3352832278037735  0.0867569315423052
  0.6801088569652615  0.8185126872443607  0.0970773424029872
  0.3130699249034438  0.1880131083425997  0.9086699822218525
  0.3342478882783073  0.6570321297783142  0.9155038091219591
  0.8411438145496418  0.1675191636464717  0.9184635176781064
  0.8213594615466829  0.6773053035309646  0.9131210776271617
 
  0.00000000E+00  0.00000000E+00  0.00000000E+00
  0.00000000E+00  0.00000000E+00  0.00000000E+00
  0.00000000E+00  0.00000000E+00  0.00000000E+00
  0.00000000E+00  0.00000000E+00  0.00000000E+00
  0.00000000E+00  0.00000000E+00  0.00000000E+00
  0.00000000E+00  0.00000000E+00  0.00000000E+00
  0.00000000E+00  0.00000000E+00  0.00000000E+00
  0.00000000E+00  0.00000000E+00  0.00000000E+00
  0.00000000E+00  0.00000000E+00  0.00000000E+00
  0.00000000E+00  0.00000000E+00  0.00000000E+00
  0.00000000E+00  0.00000000E+00  0.00000000E+00
  0.00000000E+00  0.00000000E+00  0.00000000E+00
  0.00000000E+00  0.00000000E+00  0.00000000E+00
  0.00000000E+00  0.00000000E+00  0.00000000E+00
  0.00000000E+00  0.00000000E+00  0.00000000E+00
  0.00000000E+00  0.00000000E+00  0.00000000E+00
  0.00000000E+00  0.00000000E+00  0.00000000E+00
  0.00000000E+00  0.00000000E+00  0.00000000E+00
  0.00000000E+00  0.00000000E+00  0.00000000E+00
  0.00000000E+00  0.00000000E+00  0.00000000E+00
  0.00000000E+00  0.00000000E+00  0.00000000E+00
  0.00000000E+00  0.00000000E+00  0.00000000E+00
  0.00000000E+00  0.00000000E+00  0.00000000E+00
  0.00000000E+00  0.00000000E+00  0.00000000E+00
  0.00000000E+00  0.00000000E+00  0.00000000E+00
  0.00000000E+00  0.00000000E+00  0.00000000E+00
  0.00000000E+00  0.00000000E+00  0.00000000E+00
