Na6 Li2 Mn6 O16                         
   1.00000000000000     
    -2.8581404515667765   -4.9086705114844129   -0.0472228775578810
    -2.8869424723660351    4.9257024680293435    0.0019101298182048
    -0.0844931314767672   -0.0515403298342084  -11.2664514491575414
   Na   Li   Mn   O 
     3     2     6    16
Direct
  0.3290178160612195  0.6880465675907949  0.2483204078766642
  0.1604647601443949  0.3022105641764509  0.7520823150249416
  0.8416317359800901  0.1484280386829978  0.2447201420381154
  0.5007299532884733  0.9801008292328161  0.5504444950117485
  0.0071891046606980  0.0255010851463876  0.0160959404385900
  0.9962116717055491  0.9916476772845174  0.4944106727815537
 -0.0004617266320924  0.4891721855497457  0.5014066679620394
  0.4964625012258332  0.4928402025818862  0.4940165909355053
  0.0023051047262350  0.5058958712174134  0.0023415540785169
  0.4998067699668884  0.0086824970343004  0.9967113187435718
  0.4964317827186843  0.5070950349431642  0.0080774867461094
  0.3200650641913254  0.1663321562810057  0.5745596342426386
  0.3127888077909552  0.6212224576500548  0.5850849974114644
  0.8593524362179800  0.1701842783015997  0.5837823585698035
  0.8247993580970345  0.6580710081873553  0.5814558689958111
  0.1647934070807796  0.3292775528911903  0.4033267735779226
  0.1288751707892600  0.7995346896626466  0.4018174108199416
  0.6949468393924489  0.3649164009661319  0.3989650655112202
  0.6737504304512649  0.8173107627430293  0.4036024034634291
  0.1735587116228430  0.3677679468643565  0.0953167846014189
  0.1714520361196066  0.8342748272145816  0.0820351780001246
  0.6647545674540922  0.3338730012447162  0.0909521340563367
  0.6442028653715189  0.8363217713417517  0.0893609476248586
  0.3672547932401468  0.2027141262282277  0.9126585441402962
  0.3361623350351927  0.6676374468021228  0.9137207233872749
  0.8339305406521549  0.1936332524768545  0.9119980788969326
  0.8195231626474303  0.6473077677038996  0.9127355050631487
 
  0.00000000E+00  0.00000000E+00  0.00000000E+00
  0.00000000E+00  0.00000000E+00  0.00000000E+00
  0.00000000E+00  0.00000000E+00  0.00000000E+00
  0.00000000E+00  0.00000000E+00  0.00000000E+00
  0.00000000E+00  0.00000000E+00  0.00000000E+00
  0.00000000E+00  0.00000000E+00  0.00000000E+00
  0.00000000E+00  0.00000000E+00  0.00000000E+00
  0.00000000E+00  0.00000000E+00  0.00000000E+00
  0.00000000E+00  0.00000000E+00  0.00000000E+00
  0.00000000E+00  0.00000000E+00  0.00000000E+00
  0.00000000E+00  0.00000000E+00  0.00000000E+00
  0.00000000E+00  0.00000000E+00  0.00000000E+00
  0.00000000E+00  0.00000000E+00  0.00000000E+00
  0.00000000E+00  0.00000000E+00  0.00000000E+00
  0.00000000E+00  0.00000000E+00  0.00000000E+00
  0.00000000E+00  0.00000000E+00  0.00000000E+00
  0.00000000E+00  0.00000000E+00  0.00000000E+00
  0.00000000E+00  0.00000000E+00  0.00000000E+00
  0.00000000E+00  0.00000000E+00  0.00000000E+00
  0.00000000E+00  0.00000000E+00  0.00000000E+00
  0.00000000E+00  0.00000000E+00  0.00000000E+00
  0.00000000E+00  0.00000000E+00  0.00000000E+00
  0.00000000E+00  0.00000000E+00  0.00000000E+00
  0.00000000E+00  0.00000000E+00  0.00000000E+00
  0.00000000E+00  0.00000000E+00  0.00000000E+00
  0.00000000E+00  0.00000000E+00  0.00000000E+00
  0.00000000E+00  0.00000000E+00  0.00000000E+00
