Na6 Li2 Mn6 O16                         
   1.00000000000000     
    -2.9313811119742836   -5.0431855281384745   -0.0534208769329224
    -2.9464673667732146    5.0521723872088415    0.0134414474404019
    -0.0762817693848331   -0.0737865748279647  -11.2019332808373928
   Na   Li   Mn   O 
     3     2     6    16
Direct
  0.3274481365188359  0.6866326469161607  0.2506278605336640
  0.1603838980346100  0.3038508764583234  0.7508569850255163
  0.8410639793497781  0.1524622485430858  0.2467865978051349
  0.5010958825317600  0.9821910472598964  0.5470471183396957
  0.0008637588760472  0.0164643453414735  0.0129160339957730
  0.9959171743648724  0.9902325269162882  0.4921480930177152
  0.9988369749356341  0.4892133987521722  0.5002666990262988
  0.4986738380673426  0.4922796689744814  0.4913628983075496
  0.0005142617228976  0.5060507886435169  0.0009818875849590
  0.5021134693163746  0.0096976815123186  0.9948794698362792
  0.4992563046498775  0.5095276054112416  0.0083737393828613
  0.3192462662260210  0.1660666444409703  0.5762181323022532
  0.3151913421068502  0.6234760177620828  0.5862438280941004
  0.8581868182813401  0.1684321908706236  0.5858356446709612
  0.8244921928027866  0.6592269197081891  0.5833141444396840
  0.1645171494162486  0.3288620350331516  0.4000444077416253
  0.1356889519928288  0.8025183252478171  0.4029651535837280
  0.6931816088529874  0.3579930554159407  0.4012832355605297
  0.6729158494094158  0.8198994557055224  0.4024315936604031
  0.1712218070390519  0.3661978271877033  0.0973623035883670
  0.1735067402824095  0.8366448115469191  0.0832015940044373
  0.6648736682820451  0.3324932852554041  0.0932318836644884
  0.6422072386756145  0.8387701079404344  0.0926618060422239
  0.3653137289689066  0.2011145932202531  0.9111414089118949
  0.3367578375717761  0.6674166938071310  0.9109270695000520
  0.8353417716552060  0.1904946228946786  0.9103481969206944
  0.8211893500684818  0.6517905792342111  0.9165422144591036
 
  0.00000000E+00  0.00000000E+00  0.00000000E+00
  0.00000000E+00  0.00000000E+00  0.00000000E+00
  0.00000000E+00  0.00000000E+00  0.00000000E+00
  0.00000000E+00  0.00000000E+00  0.00000000E+00
  0.00000000E+00  0.00000000E+00  0.00000000E+00
  0.00000000E+00  0.00000000E+00  0.00000000E+00
  0.00000000E+00  0.00000000E+00  0.00000000E+00
  0.00000000E+00  0.00000000E+00  0.00000000E+00
  0.00000000E+00  0.00000000E+00  0.00000000E+00
  0.00000000E+00  0.00000000E+00  0.00000000E+00
  0.00000000E+00  0.00000000E+00  0.00000000E+00
  0.00000000E+00  0.00000000E+00  0.00000000E+00
  0.00000000E+00  0.00000000E+00  0.00000000E+00
  0.00000000E+00  0.00000000E+00  0.00000000E+00
  0.00000000E+00  0.00000000E+00  0.00000000E+00
  0.00000000E+00  0.00000000E+00  0.00000000E+00
  0.00000000E+00  0.00000000E+00  0.00000000E+00
  0.00000000E+00  0.00000000E+00  0.00000000E+00
  0.00000000E+00  0.00000000E+00  0.00000000E+00
  0.00000000E+00  0.00000000E+00  0.00000000E+00
  0.00000000E+00  0.00000000E+00  0.00000000E+00
  0.00000000E+00  0.00000000E+00  0.00000000E+00
  0.00000000E+00  0.00000000E+00  0.00000000E+00
  0.00000000E+00  0.00000000E+00  0.00000000E+00
  0.00000000E+00  0.00000000E+00  0.00000000E+00
  0.00000000E+00  0.00000000E+00  0.00000000E+00
  0.00000000E+00  0.00000000E+00  0.00000000E+00
