Na6 Mn8 O16                             
   1.00000000000000     
    -3.0321173116560201   -4.9946413176709639   -0.0197849928522760
    -2.8936358238125890    4.9118114317683084   -0.0128751706706108
    -0.0592795044614956   -0.0079524603403058  -11.2675035157385892
   Na   Mn   O 
     3     8    16
Direct
  0.3179537685454719  0.6668332148833045  0.2479541800121652
  0.1760670328147214  0.3240916471395039  0.7523804175918656
  0.8219304121636952  0.1614866575082274  0.2475415123043732
  0.9953531875053301  0.9931858416298596  0.4953783405408316
  0.9925813228870695  0.4942947396273922  0.4985224343169463
  0.4947715907422534  0.9961479314750079  0.5035847120667682
  0.4955029757073959  0.4948274050323604  0.4937756202282273
  0.0072614639795958  0.0032133079196157  0.0068405106187299
  0.0067692079814847  0.5066671839914179  0.0024565728066506
  0.5074885903532547  0.0049389170172773  0.9948065531297416
  0.5069699612229854  0.5032433051761913  0.0038386530030010
  0.3583336263811674  0.1855193989153676  0.5849304839897371
  0.3150217274526810  0.6425657798378879  0.5839087594323757
  0.8378152361556417  0.1661720439798415  0.5815799122259122
  0.8124649951007541  0.6509174378399791  0.5772622536252996
  0.1662156466554876  0.3396077093639320  0.4070501665110555
  0.1618501234092022  0.8242453187115046  0.4145415840458426
  0.6737178068827987  0.3351552269740239  0.4095869879911618
  0.6245264145766924  0.8188342181676376  0.4046958624820718
  0.1366641982748504  0.3230745313109296  0.1013980406412571
  0.1525637476532893  0.8219474177023827  0.0954279896757981
  0.6773966515008922  0.3341541909434795  0.0837189831375298
  0.6735423982840913  0.8480078537785616  0.0890274754269029
  0.3257984180145002  0.1657321335013293  0.9209725378181588
  0.3319439254855823  0.6615689164200305  0.9197443857924767
  0.8726813908281414  0.1870797180866788  0.9130579187938750
  0.8768141794409345  0.6964879530662316  0.9160171517912374
 
  0.00000000E+00  0.00000000E+00  0.00000000E+00
  0.00000000E+00  0.00000000E+00  0.00000000E+00
  0.00000000E+00  0.00000000E+00  0.00000000E+00
  0.00000000E+00  0.00000000E+00  0.00000000E+00
  0.00000000E+00  0.00000000E+00  0.00000000E+00
  0.00000000E+00  0.00000000E+00  0.00000000E+00
  0.00000000E+00  0.00000000E+00  0.00000000E+00
  0.00000000E+00  0.00000000E+00  0.00000000E+00
  0.00000000E+00  0.00000000E+00  0.00000000E+00
  0.00000000E+00  0.00000000E+00  0.00000000E+00
  0.00000000E+00  0.00000000E+00  0.00000000E+00
  0.00000000E+00  0.00000000E+00  0.00000000E+00
  0.00000000E+00  0.00000000E+00  0.00000000E+00
  0.00000000E+00  0.00000000E+00  0.00000000E+00
  0.00000000E+00  0.00000000E+00  0.00000000E+00
  0.00000000E+00  0.00000000E+00  0.00000000E+00
  0.00000000E+00  0.00000000E+00  0.00000000E+00
  0.00000000E+00  0.00000000E+00  0.00000000E+00
  0.00000000E+00  0.00000000E+00  0.00000000E+00
  0.00000000E+00  0.00000000E+00  0.00000000E+00
  0.00000000E+00  0.00000000E+00  0.00000000E+00
  0.00000000E+00  0.00000000E+00  0.00000000E+00
  0.00000000E+00  0.00000000E+00  0.00000000E+00
  0.00000000E+00  0.00000000E+00  0.00000000E+00
  0.00000000E+00  0.00000000E+00  0.00000000E+00
  0.00000000E+00  0.00000000E+00  0.00000000E+00
  0.00000000E+00  0.00000000E+00  0.00000000E+00
