Na6 Mn8 O16                             
   1.00000000000000     
    -3.0321173116560201   -4.9946413176709639   -0.0197849928522760
    -2.8936358238125890    4.9118114317683084   -0.0128751706706108
    -0.0592795044614956   -0.0079524603403058  -11.2675035157385892
   Na   Mn   O 
     3     8    16
Direct
  0.3179537685454716  0.6668332148833069  0.2479541800121648
  0.1760670328147213  0.3240916471395047  0.7523804175918645
  0.8219304121636986  0.1614866575082288  0.2475415123043697
  0.9953531875053333  0.9931858416298609  0.4953783405408333
  0.9925813228870698  0.4942947396273932  0.4985224343169494
  0.4947715907422510  0.9961479314750049  0.5035847120667689
  0.4955029757073977  0.4948274050323583  0.4937756202282307
  0.0072614639795954  0.0032133079196163  0.0068405106187321
  0.0067692079814813  0.5066671839914152  0.0024565728066497
  0.5074885903532564  0.0049389170172740  0.9948065531297411
  0.5069699612229848  0.5032433051761889  0.0038386530030031
  0.3583336263811682  0.1855193989153677  0.5849304839897339
  0.3150217274526802  0.6425657798378905  0.5839087594323772
  0.8378152361556394  0.1661720439798443  0.5815799122259128
  0.8124649951007555  0.6509174378399772  0.5772622536253015
  0.1662156466554867  0.3396077093639321  0.4070501665110529
  0.1618501234092028  0.8242453187115014  0.4145415840458396
  0.6737178068827963  0.3351552269740244  0.4095869879911636
  0.6245264145766952  0.8188342181676410  0.4046958624820716
  0.1366641982748492  0.3230745313109323  0.1013980406412548
  0.1525637476532879  0.8219474177023792  0.0954279896757995
  0.6773966515008940  0.3341541909434823  0.0837189831375296
  0.6735423982840939  0.8480078537785583  0.0890274754269026
  0.3257984180144974  0.1657321335013278  0.9209725378181552
  0.3319439254855832  0.6615689164200295  0.9197443857924749
  0.8726813908281441  0.1870797180866814  0.9130579187938735
  0.8768141794409361  0.6964879530662336  0.9160171517912351
 
  0.00000000E+00  0.00000000E+00  0.00000000E+00
  0.00000000E+00  0.00000000E+00  0.00000000E+00
  0.00000000E+00  0.00000000E+00  0.00000000E+00
  0.00000000E+00  0.00000000E+00  0.00000000E+00
  0.00000000E+00  0.00000000E+00  0.00000000E+00
  0.00000000E+00  0.00000000E+00  0.00000000E+00
  0.00000000E+00  0.00000000E+00  0.00000000E+00
  0.00000000E+00  0.00000000E+00  0.00000000E+00
  0.00000000E+00  0.00000000E+00  0.00000000E+00
  0.00000000E+00  0.00000000E+00  0.00000000E+00
  0.00000000E+00  0.00000000E+00  0.00000000E+00
  0.00000000E+00  0.00000000E+00  0.00000000E+00
  0.00000000E+00  0.00000000E+00  0.00000000E+00
  0.00000000E+00  0.00000000E+00  0.00000000E+00
  0.00000000E+00  0.00000000E+00  0.00000000E+00
  0.00000000E+00  0.00000000E+00  0.00000000E+00
  0.00000000E+00  0.00000000E+00  0.00000000E+00
  0.00000000E+00  0.00000000E+00  0.00000000E+00
  0.00000000E+00  0.00000000E+00  0.00000000E+00
  0.00000000E+00  0.00000000E+00  0.00000000E+00
  0.00000000E+00  0.00000000E+00  0.00000000E+00
  0.00000000E+00  0.00000000E+00  0.00000000E+00
  0.00000000E+00  0.00000000E+00  0.00000000E+00
  0.00000000E+00  0.00000000E+00  0.00000000E+00
  0.00000000E+00  0.00000000E+00  0.00000000E+00
  0.00000000E+00  0.00000000E+00  0.00000000E+00
  0.00000000E+00  0.00000000E+00  0.00000000E+00
