Na6 Mn8 O16                             
   1.00000000000000     
    -3.0792186771868670   -5.0969434972139718   -0.0235501480201896
    -2.9714410913056817    5.0323790592970239   -0.0099455071187138
    -0.0618838448128633   -0.0155198829801362  -11.2818790366285562
   Na   Mn   O 
     3     8    16
Direct
  0.3177691766642591  0.6673249988034755  0.2499567835253127
  0.1755719394261874  0.3240856616782496  0.7507846832658092
  0.8219658099286432  0.1619212243708240  0.2491809561195862
  0.9957583139314760  0.9934007164681125  0.4951698975520264
  0.9930736052319934  0.4941566066046966  0.4983496021146105
  0.4950596491521493  0.9958368580781631  0.5042984384135456
  0.4950941327959512  0.4954286022652102  0.4928727848999583
  0.0068709180312866  0.0039154187080898  0.0075657183717961
  0.0068190437122074  0.5060079281244777  0.0025404587843110
  0.5073409126664000  0.0048265641785520  0.9940707885237209
  0.5074827330105667  0.5038301485203844  0.0042854544074684
  0.3508762147971330  0.1826276390278680  0.5862247964145125
  0.3125803050458604  0.6373086375305839  0.5867135097206873
  0.8433329920460949  0.1680039368074632  0.5844410802998001
  0.8134771591535885  0.6519265042520191  0.5798994021309346
  0.1652243340602721  0.3395150436373721  0.4038381610232438
  0.1581358109827588  0.8217400515924488  0.4117417177944094
  0.6763459576145595  0.3388008524879090  0.4070354580139358
  0.6301220872587289  0.8221023883468722  0.4031543372824571
  0.1439422906581680  0.3273036798242731  0.1015397429223120
  0.1510327814814682  0.8202670448180746  0.0966647385105893
  0.6773785074584474  0.3353044453748620  0.0856797384901933
  0.6723075942477104  0.8468286622226161  0.0909407637302439
  0.3267642107003851  0.1685366822158172  0.9187668608551834
  0.3324455162245636  0.6591997383449030  0.9174955900166357
  0.8757860560509935  0.1883643225097376  0.9112900916220521
  0.8674419476681404  0.6914356432069291  0.9154984451946646
 
  0.00000000E+00  0.00000000E+00  0.00000000E+00
  0.00000000E+00  0.00000000E+00  0.00000000E+00
  0.00000000E+00  0.00000000E+00  0.00000000E+00
  0.00000000E+00  0.00000000E+00  0.00000000E+00
  0.00000000E+00  0.00000000E+00  0.00000000E+00
  0.00000000E+00  0.00000000E+00  0.00000000E+00
  0.00000000E+00  0.00000000E+00  0.00000000E+00
  0.00000000E+00  0.00000000E+00  0.00000000E+00
  0.00000000E+00  0.00000000E+00  0.00000000E+00
  0.00000000E+00  0.00000000E+00  0.00000000E+00
  0.00000000E+00  0.00000000E+00  0.00000000E+00
  0.00000000E+00  0.00000000E+00  0.00000000E+00
  0.00000000E+00  0.00000000E+00  0.00000000E+00
  0.00000000E+00  0.00000000E+00  0.00000000E+00
  0.00000000E+00  0.00000000E+00  0.00000000E+00
  0.00000000E+00  0.00000000E+00  0.00000000E+00
  0.00000000E+00  0.00000000E+00  0.00000000E+00
  0.00000000E+00  0.00000000E+00  0.00000000E+00
  0.00000000E+00  0.00000000E+00  0.00000000E+00
  0.00000000E+00  0.00000000E+00  0.00000000E+00
  0.00000000E+00  0.00000000E+00  0.00000000E+00
  0.00000000E+00  0.00000000E+00  0.00000000E+00
  0.00000000E+00  0.00000000E+00  0.00000000E+00
  0.00000000E+00  0.00000000E+00  0.00000000E+00
  0.00000000E+00  0.00000000E+00  0.00000000E+00
  0.00000000E+00  0.00000000E+00  0.00000000E+00
  0.00000000E+00  0.00000000E+00  0.00000000E+00
